1592.97
0 15 71 5 2 1 23 40 7 8 4 0
0 27 14 11 10 9 16 17 0
0 20 21 22 56 24 18 25 44 72 19 0
0 35 54 31 49 33 28 30 29 13 34 0
0 41 43 42 37 45 32 55 39 38 26 0
0 52 57 46 53 65 58 50 12 6 0
0 48 47 60 36 69 61 64 62 63 51 59 0
0 3 73 74 70 66 67 68 75 0
